c generated by sgen
p cnf 73 156
-2 -3 -4 0
-1 -3 -4 0
-1 -2 -4 0
-1 -2 -3 0
-6 -7 -8 0
-5 -7 -8 0
-5 -6 -8 0
-5 -6 -7 0
-10 -11 -12 0
-9 -11 -12 0
-9 -10 -12 0
-9 -10 -11 0
-14 -15 -16 0
-13 -15 -16 0
-13 -14 -16 0
-13 -14 -15 0
-18 -19 -20 0
-17 -19 -20 0
-17 -18 -20 0
-17 -18 -19 0
-22 -23 -24 0
-21 -23 -24 0
-21 -22 -24 0
-21 -22 -23 0
-26 -27 -28 0
-25 -27 -28 0
-25 -26 -28 0
-25 -26 -27 0
-30 -31 -32 0
-29 -31 -32 0
-29 -30 -32 0
-29 -30 -31 0
-34 -35 -36 0
-33 -35 -36 0
-33 -34 -36 0
-33 -34 -35 0
-38 -39 -40 0
-37 -39 -40 0
-37 -38 -40 0
-37 -38 -39 0
-42 -43 -44 0
-41 -43 -44 0
-41 -42 -44 0
-41 -42 -43 0
-46 -47 -48 0
-45 -47 -48 0
-45 -46 -48 0
-45 -46 -47 0
-50 -51 -52 0
-49 -51 -52 0
-49 -50 -52 0
-49 -50 -51 0
-54 -55 -56 0
-53 -55 -56 0
-53 -54 -56 0
-53 -54 -55 0
-58 -59 -60 0
-57 -59 -60 0
-57 -58 -60 0
-57 -58 -59 0
-62 -63 -64 0
-61 -63 -64 0
-61 -62 -64 0
-61 -62 -63 0
-66 -67 -68 0
-65 -67 -68 0
-65 -66 -68 0
-65 -66 -67 0
-69 -70 -71 0
-69 -70 -72 0
-69 -70 -73 0
-69 -71 -72 0
-69 -71 -73 0
-69 -72 -73 0
-70 -71 -72 0
-70 -71 -73 0
-70 -72 -73 0
-71 -72 -73 0
58 68 4 0
34 68 4 0
34 58 4 0
34 58 68 0
69 35 12 0
44 35 12 0
44 69 12 0
44 69 35 0
54 3 21 0
11 3 21 0
11 54 21 0
11 54 3 0
53 64 71 0
57 64 71 0
57 53 71 0
57 53 64 0
20 56 28 0
29 56 28 0
29 20 28 0
29 20 56 0
17 7 37 0
41 7 37 0
41 17 37 0
41 17 7 0
61 15 6 0
9 15 6 0
9 61 6 0
9 61 15 0
52 33 25 0
13 33 25 0
13 52 25 0
13 52 33 0
49 48 43 0
55 48 43 0
55 49 43 0
55 49 48 0
26 22 66 0
63 22 66 0
63 26 66 0
63 26 22 0
8 2 70 0
27 2 70 0
27 8 70 0
27 8 2 0
32 5 23 0
67 5 23 0
67 32 23 0
67 32 5 0
51 10 40 0
59 10 40 0
59 51 40 0
59 51 10 0
19 50 1 0
73 50 1 0
73 19 1 0
73 19 50 0
60 31 16 0
42 31 16 0
42 60 16 0
42 60 31 0
30 62 39 0
45 62 39 0
45 30 39 0
45 30 62 0
18 36 47 0
24 36 47 0
24 18 47 0
24 18 36 0
14 38 46 0
14 38 72 0
14 38 65 0
14 46 72 0
14 46 65 0
14 72 65 0
38 46 72 0
38 46 65 0
38 72 65 0
46 72 65 0
